(set-logic ALL)
(declare-const x String)
(declare-const y String)
(assert (str.in_re x (re.* (str.to_re "[' '"))))
(assert (str.in_re y (str.to_re "pm4")))
(assert (= 1 (str.to_int x)))
(assert (= (str.to_int y) 7))
(check-sat)
